(set-info :smt-lib-version 2.6)
(set-logic QF_ABVFP)
(set-info :source |
Generated by: Daniel Liew, Daniel Schemmel, Cristian Cadar, Alastair Donaldson, and Rafael Zähl
Generated on: 2017-4-28
Generator: KLEE
Application: Branch satisfiability check for symbolic execution of C programs
Target solver: Z3 or MathSAT5
Corresponding query: An equisatisfiable query (arrays replaced with bitvectors) is available at QF_BVFP/20170428-Liew-KLEE/imperial_svcomp_float-benchs_svcomp_rlim_invariant.x86_64/query.671.smt2
|)
(set-info :license "https://creativecommons.org/licenses/by/4.0/")
(set-info :category "industrial")
(set-info :status sat)
(declare-fun symbolic_0_float_40 () (Array (_ BitVec 32) (_ BitVec 8)))
(declare-fun symbolic_0_float_52 () (Array (_ BitVec 32) (_ BitVec 8)))
(declare-fun symbolic_0_float_21 () (Array (_ BitVec 32) (_ BitVec 8)))
(declare-fun symbolic_0_float_73 () (Array (_ BitVec 32) (_ BitVec 8)))
(declare-fun symbolic_0_float_64 () (Array (_ BitVec 32) (_ BitVec 8)))
(declare-fun symbolic_0_float_85 () (Array (_ BitVec 32) (_ BitVec 8)))
(declare-fun symbolic_0_float_96 () (Array (_ BitVec 32) (_ BitVec 8)))
(declare-fun symbolic_0_float_38 () (Array (_ BitVec 32) (_ BitVec 8)))
(declare-fun symbolic_0_float7 () (Array (_ BitVec 32) (_ BitVec 8)))
(declare-fun symbolic_0_float_19 () (Array (_ BitVec 32) (_ BitVec 8)))
(assert
 (let ((?x21 ((_ to_fp 8 24) (_ bv3271557120 32))))
 (let ((?x12 (concat (select symbolic_0_float_40 (_ bv1 32)) (select symbolic_0_float_40 (_ bv0 32)))))
 (let ((?x18 (concat (select symbolic_0_float_40 (_ bv3 32)) (concat (select symbolic_0_float_40 (_ bv2 32)) ?x12))))
 (let ((?x19 ((_ to_fp 8 24) ?x18)))
 (fp.geq ?x19 ?x21))))))
(assert
 (let ((?x24 ((_ to_fp 8 24) (_ bv1124073472 32))))
 (let ((?x12 (concat (select symbolic_0_float_40 (_ bv1 32)) (select symbolic_0_float_40 (_ bv0 32)))))
 (let ((?x18 (concat (select symbolic_0_float_40 (_ bv3 32)) (concat (select symbolic_0_float_40 (_ bv2 32)) ?x12))))
 (let ((?x19 ((_ to_fp 8 24) ?x18)))
 (fp.leq ?x19 ?x24))))))
(assert
 (let ((?x43 (concat (select symbolic_0_float_52 (_ bv1 32)) (select symbolic_0_float_52 (_ bv0 32)))))
 (let ((?x47 (concat (select symbolic_0_float_52 (_ bv3 32)) (concat (select symbolic_0_float_52 (_ bv2 32)) ?x43))))
 (let ((?x48 ((_ to_fp 8 24) ?x47)))
 (let ((?x39 ((_ to_fp 8 24) (_ bv2147483648 32))))
 (let ((?x49 (fp.sub roundNearestTiesToEven ?x39 ?x48)))
 (let ((?x29 (concat (select symbolic_0_float_21 (_ bv1 32)) (select symbolic_0_float_21 (_ bv0 32)))))
 (let ((?x33 (concat (select symbolic_0_float_21 (_ bv3 32)) (concat (select symbolic_0_float_21 (_ bv2 32)) ?x29))))
 (let ((?x34 ((_ to_fp 8 24) ?x33)))
 (let ((?x12 (concat (select symbolic_0_float_40 (_ bv1 32)) (select symbolic_0_float_40 (_ bv0 32)))))
 (let ((?x18 (concat (select symbolic_0_float_40 (_ bv3 32)) (concat (select symbolic_0_float_40 (_ bv2 32)) ?x12))))
 (let ((?x19 ((_ to_fp 8 24) ?x18)))
 (let ((?x36 (fp.sub roundNearestTiesToEven ?x19 ?x34)))
 (or (or (fp.isNaN ?x36) (fp.isNaN ?x49)) (fp.gt ?x36 ?x49)))))))))))))))
(assert
 (let ((?x43 (concat (select symbolic_0_float_52 (_ bv1 32)) (select symbolic_0_float_52 (_ bv0 32)))))
 (let ((?x47 (concat (select symbolic_0_float_52 (_ bv3 32)) (concat (select symbolic_0_float_52 (_ bv2 32)) ?x43))))
 (let ((?x48 ((_ to_fp 8 24) ?x47)))
 (let ((?x29 (concat (select symbolic_0_float_21 (_ bv1 32)) (select symbolic_0_float_21 (_ bv0 32)))))
 (let ((?x33 (concat (select symbolic_0_float_21 (_ bv3 32)) (concat (select symbolic_0_float_21 (_ bv2 32)) ?x29))))
 (let ((?x34 ((_ to_fp 8 24) ?x33)))
 (let ((?x12 (concat (select symbolic_0_float_40 (_ bv1 32)) (select symbolic_0_float_40 (_ bv0 32)))))
 (let ((?x18 (concat (select symbolic_0_float_40 (_ bv3 32)) (concat (select symbolic_0_float_40 (_ bv2 32)) ?x12))))
 (let ((?x19 ((_ to_fp 8 24) ?x18)))
 (let ((?x36 (fp.sub roundNearestTiesToEven ?x19 ?x34)))
 (or (or (fp.isNaN ?x36) (fp.isNaN ?x48)) (fp.lt ?x36 ?x48)))))))))))))
(assert
 (let ((?x67 ((_ to_fp 8 24) (_ bv0 32))))
 (let ((?x61 (concat (select symbolic_0_float_73 (_ bv1 32)) (select symbolic_0_float_73 (_ bv0 32)))))
 (let ((?x65 (concat (select symbolic_0_float_73 (_ bv3 32)) (concat (select symbolic_0_float_73 (_ bv2 32)) ?x61))))
 (let ((?x66 ((_ to_fp 8 24) ?x65)))
 (fp.geq ?x66 ?x67))))))
(assert
 (let ((?x70 ((_ to_fp 8 24) (_ bv1098907648 32))))
 (let ((?x61 (concat (select symbolic_0_float_73 (_ bv1 32)) (select symbolic_0_float_73 (_ bv0 32)))))
 (let ((?x65 (concat (select symbolic_0_float_73 (_ bv3 32)) (concat (select symbolic_0_float_73 (_ bv2 32)) ?x61))))
 (let ((?x66 ((_ to_fp 8 24) ?x65)))
 (fp.leq ?x66 ?x70))))))
(assert
 (let ((?x12 (concat (select symbolic_0_float_40 (_ bv1 32)) (select symbolic_0_float_40 (_ bv0 32)))))
 (let ((?x18 (concat (select symbolic_0_float_40 (_ bv3 32)) (concat (select symbolic_0_float_40 (_ bv2 32)) ?x12))))
 (let ((?x19 ((_ to_fp 8 24) ?x18)))
 (let ((?x75 (concat (select symbolic_0_float_64 (_ bv1 32)) (select symbolic_0_float_64 (_ bv0 32)))))
 (let ((?x79 (concat (select symbolic_0_float_64 (_ bv3 32)) (concat (select symbolic_0_float_64 (_ bv2 32)) ?x75))))
 (let ((?x80 ((_ to_fp 8 24) ?x79)))
 (let ((?x81 (fp.sub roundNearestTiesToEven ?x80 ?x19)))
 (not (fp.isNaN ?x81))))))))))
(assert
 (let ((?x61 (concat (select symbolic_0_float_73 (_ bv1 32)) (select symbolic_0_float_73 (_ bv0 32)))))
 (let ((?x65 (concat (select symbolic_0_float_73 (_ bv3 32)) (concat (select symbolic_0_float_73 (_ bv2 32)) ?x61))))
 (let ((?x66 ((_ to_fp 8 24) ?x65)))
 (let ((?x39 ((_ to_fp 8 24) (_ bv2147483648 32))))
 (let ((?x84 (fp.sub roundNearestTiesToEven ?x39 ?x66)))
 (not (fp.isNaN ?x84))))))))
(assert
 (let ((?x61 (concat (select symbolic_0_float_73 (_ bv1 32)) (select symbolic_0_float_73 (_ bv0 32)))))
 (let ((?x65 (concat (select symbolic_0_float_73 (_ bv3 32)) (concat (select symbolic_0_float_73 (_ bv2 32)) ?x61))))
 (let ((?x66 ((_ to_fp 8 24) ?x65)))
 (let ((?x39 ((_ to_fp 8 24) (_ bv2147483648 32))))
 (let ((?x84 (fp.sub roundNearestTiesToEven ?x39 ?x66)))
 (let ((?x12 (concat (select symbolic_0_float_40 (_ bv1 32)) (select symbolic_0_float_40 (_ bv0 32)))))
 (let ((?x18 (concat (select symbolic_0_float_40 (_ bv3 32)) (concat (select symbolic_0_float_40 (_ bv2 32)) ?x12))))
 (let ((?x19 ((_ to_fp 8 24) ?x18)))
 (let ((?x75 (concat (select symbolic_0_float_64 (_ bv1 32)) (select symbolic_0_float_64 (_ bv0 32)))))
 (let ((?x79 (concat (select symbolic_0_float_64 (_ bv3 32)) (concat (select symbolic_0_float_64 (_ bv2 32)) ?x75))))
 (let ((?x80 ((_ to_fp 8 24) ?x79)))
 (let ((?x81 (fp.sub roundNearestTiesToEven ?x80 ?x19)))
 (not (fp.gt ?x81 ?x84)))))))))))))))
(assert
 (let ((?x21 ((_ to_fp 8 24) (_ bv3271557120 32))))
 (let ((?x92 (concat (select symbolic_0_float_85 (_ bv1 32)) (select symbolic_0_float_85 (_ bv0 32)))))
 (let ((?x96 (concat (select symbolic_0_float_85 (_ bv3 32)) (concat (select symbolic_0_float_85 (_ bv2 32)) ?x92))))
 (let ((?x97 ((_ to_fp 8 24) ?x96)))
 (fp.geq ?x97 ?x21))))))
(assert
 (let ((?x24 ((_ to_fp 8 24) (_ bv1124073472 32))))
 (let ((?x92 (concat (select symbolic_0_float_85 (_ bv1 32)) (select symbolic_0_float_85 (_ bv0 32)))))
 (let ((?x96 (concat (select symbolic_0_float_85 (_ bv3 32)) (concat (select symbolic_0_float_85 (_ bv2 32)) ?x92))))
 (let ((?x97 ((_ to_fp 8 24) ?x96)))
 (fp.leq ?x97 ?x24))))))
(assert
 (let ((?x67 ((_ to_fp 8 24) (_ bv0 32))))
 (let ((?x103 (concat (select symbolic_0_float_96 (_ bv1 32)) (select symbolic_0_float_96 (_ bv0 32)))))
 (let ((?x107 (concat (select symbolic_0_float_96 (_ bv3 32)) (concat (select symbolic_0_float_96 (_ bv2 32)) ?x103))))
 (let ((?x108 ((_ to_fp 8 24) ?x107)))
 (fp.geq ?x108 ?x67))))))
(assert
 (let ((?x70 ((_ to_fp 8 24) (_ bv1098907648 32))))
 (let ((?x103 (concat (select symbolic_0_float_96 (_ bv1 32)) (select symbolic_0_float_96 (_ bv0 32)))))
 (let ((?x107 (concat (select symbolic_0_float_96 (_ bv3 32)) (concat (select symbolic_0_float_96 (_ bv2 32)) ?x103))))
 (let ((?x108 ((_ to_fp 8 24) ?x107)))
 (fp.leq ?x108 ?x70))))))
(assert
 (let ((?x103 (concat (select symbolic_0_float_96 (_ bv1 32)) (select symbolic_0_float_96 (_ bv0 32)))))
 (let ((?x107 (concat (select symbolic_0_float_96 (_ bv3 32)) (concat (select symbolic_0_float_96 (_ bv2 32)) ?x103))))
 (let ((?x108 ((_ to_fp 8 24) ?x107)))
 (let ((?x39 ((_ to_fp 8 24) (_ bv2147483648 32))))
 (let ((?x114 (fp.sub roundNearestTiesToEven ?x39 ?x108)))
 (let ((?x61 (concat (select symbolic_0_float_73 (_ bv1 32)) (select symbolic_0_float_73 (_ bv0 32)))))
 (let ((?x65 (concat (select symbolic_0_float_73 (_ bv3 32)) (concat (select symbolic_0_float_73 (_ bv2 32)) ?x61))))
 (let ((?x66 ((_ to_fp 8 24) ?x65)))
 (let ((?x12 (concat (select symbolic_0_float_40 (_ bv1 32)) (select symbolic_0_float_40 (_ bv0 32)))))
 (let ((?x18 (concat (select symbolic_0_float_40 (_ bv3 32)) (concat (select symbolic_0_float_40 (_ bv2 32)) ?x12))))
 (let ((?x19 ((_ to_fp 8 24) ?x18)))
 (let ((?x92 (concat (select symbolic_0_float_85 (_ bv1 32)) (select symbolic_0_float_85 (_ bv0 32)))))
 (let ((?x96 (concat (select symbolic_0_float_85 (_ bv3 32)) (concat (select symbolic_0_float_85 (_ bv2 32)) ?x92))))
 (let ((?x97 ((_ to_fp 8 24) ?x96)))
 (let ((?x112 (fp.sub roundNearestTiesToEven ?x97 (fp.sub roundNearestTiesToEven ?x19 ?x66))))
 (or (or (fp.isNaN ?x112) (fp.isNaN ?x114)) (fp.gt ?x112 ?x114))))))))))))))))))
(assert
 (let ((?x21 ((_ to_fp 8 24) (_ bv3271557120 32))))
 (let ((?x29 (concat (select symbolic_0_float_21 (_ bv1 32)) (select symbolic_0_float_21 (_ bv0 32)))))
 (let ((?x33 (concat (select symbolic_0_float_21 (_ bv3 32)) (concat (select symbolic_0_float_21 (_ bv2 32)) ?x29))))
 (let ((?x34 ((_ to_fp 8 24) ?x33)))
 (fp.geq ?x34 ?x21))))))
(assert
 (let ((?x24 ((_ to_fp 8 24) (_ bv1124073472 32))))
 (let ((?x29 (concat (select symbolic_0_float_21 (_ bv1 32)) (select symbolic_0_float_21 (_ bv0 32)))))
 (let ((?x33 (concat (select symbolic_0_float_21 (_ bv3 32)) (concat (select symbolic_0_float_21 (_ bv2 32)) ?x29))))
 (let ((?x34 ((_ to_fp 8 24) ?x33)))
 (fp.leq ?x34 ?x24))))))
(assert
 (let ((?x135 (concat (select symbolic_0_float_38 (_ bv1 32)) (select symbolic_0_float_38 (_ bv0 32)))))
 (let ((?x139 (concat (select symbolic_0_float_38 (_ bv3 32)) (concat (select symbolic_0_float_38 (_ bv2 32)) ?x135))))
 (let ((?x140 ((_ to_fp 8 24) ?x139)))
 (let ((?x39 ((_ to_fp 8 24) (_ bv2147483648 32))))
 (let ((?x141 (fp.sub roundNearestTiesToEven ?x39 ?x140)))
 (let ((?x124 (concat (select symbolic_0_float7 (_ bv1 32)) (select symbolic_0_float7 (_ bv0 32)))))
 (let ((?x128 (concat (select symbolic_0_float7 (_ bv3 32)) (concat (select symbolic_0_float7 (_ bv2 32)) ?x124))))
 (let ((?x129 ((_ to_fp 8 24) ?x128)))
 (let ((?x29 (concat (select symbolic_0_float_21 (_ bv1 32)) (select symbolic_0_float_21 (_ bv0 32)))))
 (let ((?x33 (concat (select symbolic_0_float_21 (_ bv3 32)) (concat (select symbolic_0_float_21 (_ bv2 32)) ?x29))))
 (let ((?x34 ((_ to_fp 8 24) ?x33)))
 (let ((?x130 (fp.sub roundNearestTiesToEven ?x34 ?x129)))
 (or (or (fp.isNaN ?x130) (fp.isNaN ?x141)) (fp.gt ?x130 ?x141)))))))))))))))
(assert
 (let ((?x135 (concat (select symbolic_0_float_38 (_ bv1 32)) (select symbolic_0_float_38 (_ bv0 32)))))
 (let ((?x139 (concat (select symbolic_0_float_38 (_ bv3 32)) (concat (select symbolic_0_float_38 (_ bv2 32)) ?x135))))
 (let ((?x140 ((_ to_fp 8 24) ?x139)))
 (let ((?x124 (concat (select symbolic_0_float7 (_ bv1 32)) (select symbolic_0_float7 (_ bv0 32)))))
 (let ((?x128 (concat (select symbolic_0_float7 (_ bv3 32)) (concat (select symbolic_0_float7 (_ bv2 32)) ?x124))))
 (let ((?x129 ((_ to_fp 8 24) ?x128)))
 (let ((?x29 (concat (select symbolic_0_float_21 (_ bv1 32)) (select symbolic_0_float_21 (_ bv0 32)))))
 (let ((?x33 (concat (select symbolic_0_float_21 (_ bv3 32)) (concat (select symbolic_0_float_21 (_ bv2 32)) ?x29))))
 (let ((?x34 ((_ to_fp 8 24) ?x33)))
 (let ((?x130 (fp.sub roundNearestTiesToEven ?x34 ?x129)))
 (or (or (fp.isNaN ?x130) (fp.isNaN ?x140)) (fp.lt ?x130 ?x140)))))))))))))
(assert
 (let ((?x67 ((_ to_fp 8 24) (_ bv0 32))))
 (let ((?x43 (concat (select symbolic_0_float_52 (_ bv1 32)) (select symbolic_0_float_52 (_ bv0 32)))))
 (let ((?x47 (concat (select symbolic_0_float_52 (_ bv3 32)) (concat (select symbolic_0_float_52 (_ bv2 32)) ?x43))))
 (let ((?x48 ((_ to_fp 8 24) ?x47)))
 (fp.geq ?x48 ?x67))))))
(assert
 (let ((?x70 ((_ to_fp 8 24) (_ bv1098907648 32))))
 (let ((?x43 (concat (select symbolic_0_float_52 (_ bv1 32)) (select symbolic_0_float_52 (_ bv0 32)))))
 (let ((?x47 (concat (select symbolic_0_float_52 (_ bv3 32)) (concat (select symbolic_0_float_52 (_ bv2 32)) ?x43))))
 (let ((?x48 ((_ to_fp 8 24) ?x47)))
 (fp.leq ?x48 ?x70))))))
(assert
 (let ((?x21 ((_ to_fp 8 24) (_ bv3271557120 32))))
 (let ((?x75 (concat (select symbolic_0_float_64 (_ bv1 32)) (select symbolic_0_float_64 (_ bv0 32)))))
 (let ((?x79 (concat (select symbolic_0_float_64 (_ bv3 32)) (concat (select symbolic_0_float_64 (_ bv2 32)) ?x75))))
 (let ((?x80 ((_ to_fp 8 24) ?x79)))
 (fp.geq ?x80 ?x21))))))
(assert
 (let ((?x24 ((_ to_fp 8 24) (_ bv1124073472 32))))
 (let ((?x75 (concat (select symbolic_0_float_64 (_ bv1 32)) (select symbolic_0_float_64 (_ bv0 32)))))
 (let ((?x79 (concat (select symbolic_0_float_64 (_ bv3 32)) (concat (select symbolic_0_float_64 (_ bv2 32)) ?x75))))
 (let ((?x80 ((_ to_fp 8 24) ?x79)))
 (fp.leq ?x80 ?x24))))))
(assert
 (let ((?x21 ((_ to_fp 8 24) (_ bv3271557120 32))))
 (let ((?x124 (concat (select symbolic_0_float7 (_ bv1 32)) (select symbolic_0_float7 (_ bv0 32)))))
 (let ((?x128 (concat (select symbolic_0_float7 (_ bv3 32)) (concat (select symbolic_0_float7 (_ bv2 32)) ?x124))))
 (let ((?x129 ((_ to_fp 8 24) ?x128)))
 (fp.geq ?x129 ?x21))))))
(assert
 (let ((?x24 ((_ to_fp 8 24) (_ bv1124073472 32))))
 (let ((?x124 (concat (select symbolic_0_float7 (_ bv1 32)) (select symbolic_0_float7 (_ bv0 32)))))
 (let ((?x128 (concat (select symbolic_0_float7 (_ bv3 32)) (concat (select symbolic_0_float7 (_ bv2 32)) ?x124))))
 (let ((?x129 ((_ to_fp 8 24) ?x128)))
 (fp.leq ?x129 ?x24))))))
(assert
 (let ((?x161 (concat (select symbolic_0_float_19 (_ bv1 32)) (select symbolic_0_float_19 (_ bv0 32)))))
 (let ((?x165 (concat (select symbolic_0_float_19 (_ bv3 32)) (concat (select symbolic_0_float_19 (_ bv2 32)) ?x161))))
 (let ((?x166 ((_ to_fp 8 24) ?x165)))
 (let ((?x39 ((_ to_fp 8 24) (_ bv2147483648 32))))
 (let ((?x167 (fp.sub roundNearestTiesToEven ?x39 ?x166)))
 (let ((?x67 ((_ to_fp 8 24) (_ bv0 32))))
 (let ((?x124 (concat (select symbolic_0_float7 (_ bv1 32)) (select symbolic_0_float7 (_ bv0 32)))))
 (let ((?x128 (concat (select symbolic_0_float7 (_ bv3 32)) (concat (select symbolic_0_float7 (_ bv2 32)) ?x124))))
 (let ((?x129 ((_ to_fp 8 24) ?x128)))
 (let ((?x156 (fp.sub roundNearestTiesToEven ?x129 ?x67)))
 (or (or (fp.isNaN ?x156) (fp.isNaN ?x167)) (fp.gt ?x156 ?x167)))))))))))))
(assert
 (let ((?x161 (concat (select symbolic_0_float_19 (_ bv1 32)) (select symbolic_0_float_19 (_ bv0 32)))))
 (let ((?x165 (concat (select symbolic_0_float_19 (_ bv3 32)) (concat (select symbolic_0_float_19 (_ bv2 32)) ?x161))))
 (let ((?x166 ((_ to_fp 8 24) ?x165)))
 (let ((?x67 ((_ to_fp 8 24) (_ bv0 32))))
 (let ((?x124 (concat (select symbolic_0_float7 (_ bv1 32)) (select symbolic_0_float7 (_ bv0 32)))))
 (let ((?x128 (concat (select symbolic_0_float7 (_ bv3 32)) (concat (select symbolic_0_float7 (_ bv2 32)) ?x124))))
 (let ((?x129 ((_ to_fp 8 24) ?x128)))
 (let ((?x156 (fp.sub roundNearestTiesToEven ?x129 ?x67)))
 (or (or (fp.isNaN ?x156) (fp.isNaN ?x166)) (fp.lt ?x156 ?x166)))))))))))
(assert
 (let ((?x67 ((_ to_fp 8 24) (_ bv0 32))))
 (let ((?x135 (concat (select symbolic_0_float_38 (_ bv1 32)) (select symbolic_0_float_38 (_ bv0 32)))))
 (let ((?x139 (concat (select symbolic_0_float_38 (_ bv3 32)) (concat (select symbolic_0_float_38 (_ bv2 32)) ?x135))))
 (let ((?x140 ((_ to_fp 8 24) ?x139)))
 (fp.geq ?x140 ?x67))))))
(assert
 (let ((?x70 ((_ to_fp 8 24) (_ bv1098907648 32))))
 (let ((?x135 (concat (select symbolic_0_float_38 (_ bv1 32)) (select symbolic_0_float_38 (_ bv0 32)))))
 (let ((?x139 (concat (select symbolic_0_float_38 (_ bv3 32)) (concat (select symbolic_0_float_38 (_ bv2 32)) ?x135))))
 (let ((?x140 ((_ to_fp 8 24) ?x139)))
 (fp.leq ?x140 ?x70))))))
(assert
 (let ((?x67 ((_ to_fp 8 24) (_ bv0 32))))
 (let ((?x161 (concat (select symbolic_0_float_19 (_ bv1 32)) (select symbolic_0_float_19 (_ bv0 32)))))
 (let ((?x165 (concat (select symbolic_0_float_19 (_ bv3 32)) (concat (select symbolic_0_float_19 (_ bv2 32)) ?x161))))
 (let ((?x166 ((_ to_fp 8 24) ?x165)))
 (fp.geq ?x166 ?x67))))))
(assert
 (let ((?x70 ((_ to_fp 8 24) (_ bv1098907648 32))))
 (let ((?x161 (concat (select symbolic_0_float_19 (_ bv1 32)) (select symbolic_0_float_19 (_ bv0 32)))))
 (let ((?x165 (concat (select symbolic_0_float_19 (_ bv3 32)) (concat (select symbolic_0_float_19 (_ bv2 32)) ?x161))))
 (let ((?x166 ((_ to_fp 8 24) ?x165)))
 (fp.leq ?x166 ?x70))))))
(assert
 (let ((?x103 (concat (select symbolic_0_float_96 (_ bv1 32)) (select symbolic_0_float_96 (_ bv0 32)))))
(let ((?x107 (concat (select symbolic_0_float_96 (_ bv3 32)) (concat (select symbolic_0_float_96 (_ bv2 32)) ?x103))))
(let ((?x108 ((_ to_fp 8 24) ?x107)))
(let ((?x61 (concat (select symbolic_0_float_73 (_ bv1 32)) (select symbolic_0_float_73 (_ bv0 32)))))
(let ((?x65 (concat (select symbolic_0_float_73 (_ bv3 32)) (concat (select symbolic_0_float_73 (_ bv2 32)) ?x61))))
(let ((?x66 ((_ to_fp 8 24) ?x65)))
(let ((?x12 (concat (select symbolic_0_float_40 (_ bv1 32)) (select symbolic_0_float_40 (_ bv0 32)))))
(let ((?x18 (concat (select symbolic_0_float_40 (_ bv3 32)) (concat (select symbolic_0_float_40 (_ bv2 32)) ?x12))))
(let ((?x19 ((_ to_fp 8 24) ?x18)))
(let ((?x92 (concat (select symbolic_0_float_85 (_ bv1 32)) (select symbolic_0_float_85 (_ bv0 32)))))
(let ((?x96 (concat (select symbolic_0_float_85 (_ bv3 32)) (concat (select symbolic_0_float_85 (_ bv2 32)) ?x92))))
(let ((?x97 ((_ to_fp 8 24) ?x96)))
(let ((?x112 (fp.sub roundNearestTiesToEven ?x97 (fp.sub roundNearestTiesToEven ?x19 ?x66))))
(not (or (or (fp.isNaN ?x112) (fp.isNaN ?x108)) (fp.lt ?x112 ?x108)))))))))))))))))
(check-sat)
(exit)
